data;


param FN:= 0;
param D:= 100;
param U_Original:=
         1         1        3.776506e-01
         2         1       -7.060466e-01
         3         1       -6.156809e-02
         4         1        6.974775e-01
         5         1       -1.343733e+00
         6         1        1.672906e+00
         7         1        8.023896e-01
         8         1       -1.290179e+00
         9         1        6.322640e-01
        10         1        9.725158e-01
        11         1        5.507533e-02
        12         1       -4.902127e-02
        13         1        6.637242e-01
        14         1        7.748741e-01
        15         1       -2.667564e-01
        16         1       -4.175551e-01
        17         1        6.629591e-01
        18         1       -1.061517e+00
        19         1       -1.416133e+00
        20         1       -7.847939e-01
        21         1        1.006129e-01
        22         1       -9.540857e-01
        23         1        2.943361e-01
        24         1        8.156136e-02
        25         1       -1.261922e+00
        26         1        6.834118e-01
        27         1       -8.691386e-01
        28         1       -8.100517e-01
        29         1        9.724228e-01
        30         1       -4.854326e-01
        31         1       -1.551999e+00
        32         1        7.369281e-01
        33         1        1.026493e+00
        34         1       -2.879672e-01
        35         1       -2.500062e+00
        36         1       -1.565832e+00
        37         1       -2.334114e-01
        38         1        6.817475e-01
        39         1       -8.575391e-01
        40         1        3.958239e-01
        41         1        1.079151e+00
        42         1       -1.877272e+00
        43         1       -2.648438e-01
        44         1        8.281674e-02
        45         1        1.172398e+00
        46         1        3.019578e-01
        47         1        3.994059e-02
        48         1       -1.395668e+00
        49         1       -1.236901e+00
        50         1        6.199171e-01
        51         1        6.119735e-01
        52         1        2.057130e+00
        53         1       -4.887041e-02
        54         1        2.622162e-01
        55         1       -7.091967e-01
        56         1        7.110682e-01
        57         1       -7.005700e-01
        58         1       -3.709407e-02
        59         1       -1.051379e+00
        60         1       -7.915891e-01
        61         1        8.397956e-01
        62         1       -1.448548e+00
        63         1        1.162506e+00
        64         1        9.051369e-01
        65         1       -1.510978e+00
        66         1        1.868459e+00
        67         1        7.363698e-01
        68         1       -1.483217e+00
        69         1        1.389571e+00
        70         1        3.370324e-01
        71         1        1.109979e+00
        72         1        9.658787e-01
        73         1        1.462252e-01
        74         1       -3.656919e-02
        75         1        3.637221e-01
        76         1        2.975388e-01
        77         1       -2.343764e+00
        78         1       -7.043711e-01
        79         1       -2.823053e-01
        80         1       -2.245990e+00
        81         1       -2.528279e+00
        82         1        3.652619e-02
        83         1       -1.198734e-01
        84         1        1.604484e+00
        85         1       -4.575490e-02
        86         1       -8.043943e-01
        87         1        7.896342e-01
        88         1        3.943230e-01
        89         1       -5.695266e-01
        90         1        8.388539e-01
        91         1        4.835744e-01
        92         1       -3.514431e-01
        93         1       -2.210591e-01
        94         1        7.376721e-01
        95         1        2.365939e-01
        96         1        4.354057e-01
        97         1        4.309711e-01
        98         1       -5.412343e-01
        99         1        6.415538e-01
       100         1       -1.419684e+00
         1         2        4.497100e-01
         2         2       -9.378227e-01
         3         2        3.307436e-01
         4         2       -1.922100e-01
         5         2        3.927589e-01
         6         2       -9.992895e-01
         7         2       -6.100025e-01
         8         2        1.040434e+00
         9         2        5.105911e-01
        10         2        7.338449e-01
        11         2        1.522297e+00
        12         2       -4.421775e-01
        13         2        6.305722e-01
        14         2       -1.296547e-01
        15         2       -1.622798e+00
        16         2        6.308616e-01
        17         2        1.224219e+00
        18         2       -6.777026e-01
        19         2        4.916433e-01
        20         2        1.487540e+00
        21         2       -1.236185e+00
        22         2       -1.404410e+00
        23         2        4.751478e-01
        24         2       -2.851198e-02
        25         2       -8.634204e-01
        26         2       -1.385748e+00
        27         2       -6.184549e-01
        28         2       -1.256509e+00
        29         2       -8.622563e-01
        30         2        5.862533e-01
        31         2       -2.136607e+00
        32         2        7.815184e-02
        33         2        1.762102e+00
        34         2       -6.286716e-01
        35         2        5.209137e-03
        36         2        5.160134e-01
        37         2       -1.999461e+00
        38         2       -1.691427e+00
        39         2       -5.870968e-01
        40         2       -1.383971e+00
        41         2       -3.679858e-01
        42         2        1.024684e+00
        43         2       -7.702085e-01
        44         2       -1.608748e-01
        45         2        3.273285e-01
        46         2       -6.809634e-01
        47         2       -1.338196e+00
        48         2        7.630458e-01
        49         2        9.682679e-02
        50         2       -3.121218e-01
        51         2       -1.339502e+00
        52         2       -3.317894e-01
        53         2        1.482916e+00
        54         2       -1.733334e+00
        55         2        1.635852e-01
        56         2        5.014219e-01
        57         2       -1.988527e+00
        58         2        2.370266e-01
        59         2       -1.257644e+00
        60         2        1.158894e+00
        61         2        2.339255e+00
        62         2        8.224608e-01
        63         2        1.224644e+00
        64         2       -2.055275e+00
        65         2       -1.535292e+00
        66         2       -1.091412e+00
        67         2        6.554194e-01
        68         2        1.189981e+00
        69         2       -8.771405e-01
        70         2       -8.089225e-01
        71         2        5.108059e-01
        72         2        2.473341e-01
        73         2       -4.564214e-01
        74         2        1.961612e+00
        75         2        6.421234e-01
        76         2        2.275280e-01
        77         2        3.238100e-01
        78         2       -7.097664e-01
        79         2       -9.454875e-01
        80         2        1.065116e+00
        81         2        4.609833e-01
        82         2       -1.096816e+00
        83         2        5.855801e-01
        84         2       -9.059496e-02
        85         2        9.458767e-01
        86         2        1.957932e-01
        87         2       -3.575051e-01
        88         2       -2.360180e-01
        89         2        4.600607e-01
        90         2        4.056481e-01
        91         2        2.050229e+00
        92         2        6.347065e-01
        93         2        8.999933e-02
        94         2        1.394019e+00
        95         2       -1.320168e+00
        96         2        3.511655e-02
        97         2        2.866262e-02
        98         2       -1.337862e+00
        99         2        2.534260e-01
       100         2        1.364994e+00
         1         3       -2.387577e-01
         2         3        3.462649e-01
         3         3       -1.170123e+00
         4         3       -9.080086e-01
         5         3       -4.703138e-01
         6         3        1.747564e+00
         7         3        8.970794e-01
         8         3       -1.891743e+00
         9         3       -8.696651e-02
        10         3       -4.769378e-02
        11         3       -7.118604e-01
        12         3       -9.044969e-01
        13         3        6.882951e-01
        14         3        2.471032e-01
        15         3       -1.203327e+00
        16         3       -1.065092e+00
        17         3       -4.525855e-01
        18         3       -1.327414e+00
        19         3       -1.017424e+00
        20         3        1.498475e+00
        21         3       -8.882190e-01
        22         3        5.207772e-01
        23         3        2.152236e-01
        24         3        1.435929e+00
        25         3       -1.017546e-01
        26         3       -9.303256e-01
        27         3       -5.007372e-01
        28         3        1.509135e+00
        29         3        1.574524e+00
        30         3       -1.236660e-02
        31         3        2.409920e+00
        32         3       -1.797255e-01
        33         3       -1.027955e-01
        34         3       -3.671344e-01
        35         3        6.168659e-01
        36         3        1.285554e+00
        37         3       -1.392481e+00
        38         3       -1.318962e+00
        39         3        6.297613e-01
        40         3        6.258130e-01
        41         3        2.773145e-01
        42         3       -3.053891e-01
        43         3        7.328038e-01
        44         3       -1.248363e+00
        45         3        2.495678e-01
        46         3        9.106713e-01
        47         3       -6.165522e-02
        48         3        2.415734e-01
        49         3        1.564795e+00
        50         3        2.280082e-01
        51         3        7.653017e-01
        52         3       -8.278120e-01
        53         3       -6.466114e-01
        54         3       -1.275890e+00
        55         3        3.543238e-01
        56         3       -1.169881e-01
        57         3       -3.147603e-01
        58         3        2.043798e-01
        59         3        1.128655e+00
        60         3        6.112924e-01
        61         3        1.411125e+00
        62         3       -2.402979e+00
        63         3       -1.877129e-01
        64         3       -1.303304e+00
        65         3       -9.835737e-02
        66         3        6.725873e-01
        67         3       -8.504203e-01
        68         3        5.743396e-01
        69         3        5.710767e-02
        70         3        4.224680e-01
        71         3       -5.616634e-01
        72         3       -5.814680e-01
        73         3        2.496792e+00
        74         3       -1.014082e+00
        75         3       -3.637313e-01
        76         3        1.120015e+00
        77         3       -1.195412e+00
        78         3        3.776201e-01
        79         3        1.240479e-01
        80         3       -2.163063e-01
        81         3       -1.745199e-01
        82         3        9.817829e-02
        83         3       -3.562565e-02
        84         3       -1.154377e+00
        85         3       -4.659557e-01
        86         3       -1.360630e+00
        87         3        6.596567e-01
        88         3       -3.956253e-01
        89         3       -1.197848e-01
        90         3       -1.700934e-01
        91         3        3.511607e-01
        92         3       -7.193392e-01
        93         3       -1.157371e+00
        94         3        1.640016e-01
        95         3        9.578896e-01
        96         3       -4.988320e-01
        97         3        6.246437e-03
        98         3       -3.084790e-01
        99         3        1.202333e+00
       100         3       -2.649056e-02
         1         4       -1.482832e+00
         2         4        1.801708e+00
         3         4       -2.087019e-01
         4         4       -2.157118e-01
         5         4       -1.518624e+00
         6         4       -7.132102e-01
         7         4       -5.513048e-01
         8         4       -1.689968e+00
         9         4       -7.445121e-01
        10         4       -6.466234e-01
        11         4       -2.721782e-02
        12         4       -1.682144e+00
        13         4        3.376222e-01
        14         4       -1.246102e-01
        15         4       -1.102707e+00
        16         4        7.036646e-01
        17         4        6.578954e-01
        18         4        5.002856e-01
        19         4       -1.169908e-01
        20         4        2.767141e+00
        21         4       -9.839802e-01
        22         4        3.193910e-01
        23         4       -3.154540e-01
        24         4        9.348914e-01
        25         4       -5.508001e-01
        26         4        4.801145e-01
        27         4        3.629438e-01
        28         4        1.624331e+00
        29         4        6.555414e-01
        30         4        5.790790e-01
        31         4       -2.037195e-02
        32         4       -1.848966e+00
        33         4       -7.989060e-01
        34         4        8.624503e-01
        35         4       -1.245919e-01
        36         4        7.157103e-01
        37         4        5.412704e-01
        38         4        3.326411e-03
        39         4        1.570636e+00
        40         4       -8.185575e-01
        41         4       -1.322800e+00
        42         4       -1.664070e+00
        43         4       -6.808850e-01
        44         4       -8.150727e-02
        45         4        2.173095e-01
        46         4       -5.817197e-01
        47         4        7.549466e-01
        48         4       -8.302570e-01
        49         4        3.030787e-01
        50         4       -1.710162e+00
        51         4       -7.336770e-01
        52         4       -1.453040e+00
        53         4       -1.637766e-01
        54         4       -4.000087e-01
        55         4        1.384381e+00
        56         4       -1.468679e+00
        57         4        2.890791e-02
        58         4        5.398705e-01
        59         4        1.813445e-01
        60         4       -2.658964e-01
        61         4       -9.664233e-01
        62         4        6.565424e-01
        63         4       -7.647786e-01
        64         4        3.632135e-01
        65         4       -3.311379e-01
        66         4        2.073256e-01
        67         4        2.435566e+00
        68         4       -4.379848e-01
        69         4        1.978842e+00
        70         4       -1.160444e+00
        71         4        2.863426e+00
        72         4        1.591170e+00
        73         4       -1.861401e+00
        74         4        8.343086e-01
        75         4        3.099765e-01
        76         4        4.905642e-02
        77         4        1.166809e+00
        78         4        1.038435e-01
        79         4        8.556291e-01
        80         4        2.048197e+00
        81         4       -9.249930e-02
        82         4        3.247234e-01
        83         4        1.247283e+00
        84         4        1.158931e+00
        85         4        6.313695e-01
        86         4        1.429275e+00
        87         4       -3.782912e-01
        88         4        1.023953e+00
        89         4       -1.235360e+00
        90         4        4.022232e-01
        91         4       -1.034280e+00
        92         4       -2.084723e+00
        93         4       -6.375214e-01
        94         4       -1.779739e-02
        95         4        5.105474e-01
        96         4        6.202138e-01
        97         4       -8.543769e-01
        98         4       -8.783326e-01
        99         4       -5.840773e-01
       100         4        6.873934e-01
         1         5       -7.461228e-01
         2         5       -4.190079e-01
         3         5       -8.583918e-01
         4         5        4.216969e-01
         5         5        7.456262e-01
         6         5       -7.299761e-02
         7         5       -9.176819e-01
         8         5       -4.572499e-01
         9         5       -7.496483e-01
        10         5        8.178724e-03
        11         5       -1.244895e+00
        12         5        3.014943e-01
        13         5        3.096758e-01
        14         5       -1.207613e+00
        15         5       -9.017401e-01
        16         5        6.129428e-01
        17         5        2.160662e-01
        18         5       -4.147084e-01
        19         5        1.079225e+00
        20         5        2.599230e-01
        21         5       -8.319253e-01
        22         5       -3.183675e-01
        23         5       -1.262362e+00
        24         5       -2.404811e-01
        25         5       -4.747510e-01
        26         5        1.339864e+00
        27         5       -7.238373e-01
        28         5       -9.768870e-02
        29         5       -9.594750e-01
        30         5        5.707761e-01
        31         5        3.318232e-01
        32         5        2.445754e+00
        33         5        2.576481e-01
        34         5       -8.893019e-01
        35         5        8.977509e-02
        36         5       -5.612992e-01
        37         5        1.421984e+00
        38         5       -1.949588e+00
        39         5       -2.001032e+00
        40         5        5.132327e-01
        41         5       -2.532525e+00
        42         5       -9.087822e-02
        43         5       -1.575774e+00
        44         5       -4.986321e-02
        45         5       -9.763846e-01
        46         5       -1.331151e-01
        47         5       -4.338093e-01
        48         5        1.804278e+00
        49         5        1.222496e-01
        50         5       -3.982839e-01
        51         5        1.155773e+00
        52         5        3.318599e-01
        53         5        5.572283e-01
        54         5        8.185790e-01
        55         5        2.604867e-01
        56         5        2.392319e-01
        57         5       -1.510210e+00
        58         5       -4.258672e-01
        59         5       -6.100003e-01
        60         5        6.387981e-01
        61         5       -8.438485e-01
        62         5       -2.618443e-01
        63         5       -1.094899e+00
        64         5        2.545342e-01
        65         5        6.005026e-01
        66         5       -2.651118e-01
        67         5       -1.100383e+00
        68         5       -1.168868e+00
        69         5        7.193276e-01
        70         5        5.805595e-01
        71         5       -1.751687e-01
        72         5        7.974088e-01
        73         5       -4.066685e-01
        74         5       -3.655463e-01
        75         5        9.993785e-01
        76         5        1.587918e+00
        77         5       -6.385376e-01
        78         5        8.084150e-01
        79         5        1.112056e+00
        80         5       -6.939245e-01
        81         5       -8.196681e-01
        82         5        1.120101e-01
        83         5       -2.035983e-01
        84         5        3.480278e-01
        85         5        9.792189e-01
        86         5       -1.396232e+00
        87         5        7.250365e-01
        88         5        9.368226e-01
        89         5        9.157832e-01
        90         5        1.186628e+00
        91         5        1.000299e+00
        92         5       -3.262751e-01
        93         5        6.545539e-02
        94         5       -1.401680e+00
        95         5       -1.552457e+00
        96         5        4.947354e-01
        97         5       -3.792622e-01
        98         5       -5.248970e-01
        99         5        4.104190e-01
       100         5       -6.246721e-01
;
param X_Original:=
    1        1.242599e+00
    2        1.096533e+00
    3        1.285091e+00
    4       -5.412247e-01
    5        5.521254e-01
    6        2.123646e-01
    7        3.398476e-01
    8        4.612681e-01
    9       -4.168046e-01
   10        1.514592e+00
   11       -1.833309e-01
   12        8.653975e-01
   13       -9.686680e-01
   14        1.053624e+00
   15        5.789754e-01
   16       -2.474920e-01
   17       -2.237676e-02
   18       -1.423423e+00
   19       -7.475511e-01
   20        6.888693e-01
   21       -1.244808e-01
   22        1.113427e+00
   23       -2.570003e-01
   24        8.530116e-01
   25        1.181643e+00
   26        1.029957e+00
   27       -8.537206e-02
   28        1.543925e+00
   29        2.188142e+00
   30        9.877215e-01
   31       -2.603867e+00
   32        6.132106e-01
   33        6.975282e-01
   34        1.067139e+00
   35       -1.964010e+00
   36        7.301297e-01
   37        1.525336e-01
   38        1.864374e-01
   39        2.090550e+00
   40        2.615066e-01
   41        1.143535e+00
   42       -2.976845e-01
   43       -1.076724e+00
   44        5.194177e-01
   45        1.901407e+00
   46       -9.412376e-01
   47       -6.191536e-01
   48        2.586540e+00
   49       -4.037716e-01
   50        7.297961e-01
   51       -2.135031e-01
   52        5.992421e-01
   53        1.116461e-01
   54        1.281971e+00
   55        1.055714e+00
   56       -7.182045e-01
   57        1.366628e+00
   58        1.885360e+00
   59        4.972721e-01
   60       -5.187515e-01
   61       -1.058788e+00
   62       -1.014272e-01
   63       -7.600496e-02
   64        3.743423e+00
   65        6.776729e-01
   66        8.737758e-03
   67        1.090319e+00
   68       -1.822100e+00
   69       -1.149861e+00
   70        6.673893e-01
   71        6.351316e+00
   72        1.515217e+00
   73        9.777548e-01
   74       -1.117567e-01
   75       -1.547580e+00
   76        1.457705e+00
   77       -2.547185e-01
   78        1.535440e+00
   79        1.187587e+00
   80        9.274734e-01
   81       -3.352927e-01
   82       -5.495016e-01
   83        1.588907e+00
   84        5.567212e-01
   85        6.734857e-02
   86        2.070637e+00
   87       -7.374094e-01
   88        2.442248e+00
   89       -4.056310e-01
   90       -1.867596e-01
   91       -4.130081e-01
   92       -1.247466e+00
   93        2.908658e-01
   94       -1.112934e+00
   95        4.272275e-01
   96        6.991106e-01
   97        1.675578e-01
   98        8.172079e-01
   99       -7.158950e-01
  100        7.786146e-01
;
param outliervec_original :=
    1    1
    2    1
    3    1
    4    1
    5    1
    6    1
    7    1
    8    1
    9    1
   10    1
   11    1
   12    1
   13    1
   14    0
   15    1
   16    1
   17    1
   18    1
   19    1
   20    1
   21    0
   22    1
   23    0
   24    0
   25    1
   26    1
   27    1
   28    1
   29    0
   30    1
   31    0
   32    1
   33    1
   34    1
   35    1
   36    1
   37    1
   38    1
   39    1
   40    1
   41    1
   42    1
   43    1
   44    1
   45    0
   46    1
   47    1
   48    1
   49    1
   50    1
   51    0
   52    1
   53    1
   54    0
   55    1
   56    1
   57    1
   58    1
   59    1
   60    1
   61    1
   62    1
   63    1
   64    0
   65    1
   66    1
   67    1
   68    1
   69    1
   70    1
   71    0
   72    1
   73    1
   74    1
   75    1
   76    1
   77    1
   78    1
   79    1
   80    1
   81    1
   82    1
   83    0
   84    1
   85    1
   86    0
   87    1
   88    0
   89    1
   90    1
   91    1
   92    1
   93    1
   94    1
   95    1
   96    1
   97    1
   98    1
   99    1
  100    1
;
param d:= 57;
param r:=5;
param p:=0.860000;
param M:=1000;
param U:=
         1         1       -7.060466e-01
         2         1       -6.156809e-02
         3         1        1.672906e+00
         4         1        8.023896e-01
         5         1        6.322640e-01
         6         1        5.507533e-02
         7         1        7.748741e-01
         8         1       -2.667564e-01
         9         1       -4.175551e-01
        10         1        6.629591e-01
        11         1       -7.847939e-01
        12         1        1.006129e-01
        13         1       -9.540857e-01
        14         1        2.943361e-01
        15         1        8.156136e-02
        16         1        6.834118e-01
        17         1       -8.691386e-01
        18         1       -8.100517e-01
        19         1        9.724228e-01
        20         1       -1.551999e+00
        21         1       -2.879672e-01
        22         1       -2.500062e+00
        23         1       -8.575391e-01
        24         1        3.958239e-01
        25         1        1.079151e+00
        26         1       -2.648438e-01
        27         1        8.281674e-02
        28         1        1.172398e+00
        29         1        3.019578e-01
        30         1        6.119735e-01
        31         1        2.057130e+00
        32         1        2.622162e-01
        33         1       -7.091967e-01
        34         1        7.110682e-01
        35         1       -7.005700e-01
        36         1       -1.051379e+00
        37         1        8.397956e-01
        38         1       -1.448548e+00
        39         1        1.162506e+00
        40         1        9.051369e-01
        41         1       -1.483217e+00
        42         1        1.109979e+00
        43         1        9.658787e-01
        44         1       -3.656919e-02
        45         1       -2.343764e+00
        46         1       -2.823053e-01
        47         1       -2.245990e+00
        48         1       -1.198734e-01
        49         1       -4.575490e-02
        50         1       -8.043943e-01
        51         1        7.896342e-01
        52         1        3.943230e-01
        53         1        8.388539e-01
        54         1       -2.210591e-01
        55         1        4.354057e-01
        56         1        4.309711e-01
        57         1        6.415538e-01
         1         2       -9.378227e-01
         2         2        3.307436e-01
         3         2       -9.992895e-01
         4         2       -6.100025e-01
         5         2        5.105911e-01
         6         2        1.522297e+00
         7         2       -1.296547e-01
         8         2       -1.622798e+00
         9         2        6.308616e-01
        10         2        1.224219e+00
        11         2        1.487540e+00
        12         2       -1.236185e+00
        13         2       -1.404410e+00
        14         2        4.751478e-01
        15         2       -2.851198e-02
        16         2       -1.385748e+00
        17         2       -6.184549e-01
        18         2       -1.256509e+00
        19         2       -8.622563e-01
        20         2       -2.136607e+00
        21         2       -6.286716e-01
        22         2        5.209137e-03
        23         2       -5.870968e-01
        24         2       -1.383971e+00
        25         2       -3.679858e-01
        26         2       -7.702085e-01
        27         2       -1.608748e-01
        28         2        3.273285e-01
        29         2       -6.809634e-01
        30         2       -1.339502e+00
        31         2       -3.317894e-01
        32         2       -1.733334e+00
        33         2        1.635852e-01
        34         2        5.014219e-01
        35         2       -1.988527e+00
        36         2       -1.257644e+00
        37         2        2.339255e+00
        38         2        8.224608e-01
        39         2        1.224644e+00
        40         2       -2.055275e+00
        41         2        1.189981e+00
        42         2        5.108059e-01
        43         2        2.473341e-01
        44         2        1.961612e+00
        45         2        3.238100e-01
        46         2       -9.454875e-01
        47         2        1.065116e+00
        48         2        5.855801e-01
        49         2        9.458767e-01
        50         2        1.957932e-01
        51         2       -3.575051e-01
        52         2       -2.360180e-01
        53         2        4.056481e-01
        54         2        8.999933e-02
        55         2        3.511655e-02
        56         2        2.866262e-02
        57         2        2.534260e-01
         1         3        3.462649e-01
         2         3       -1.170123e+00
         3         3        1.747564e+00
         4         3        8.970794e-01
         5         3       -8.696651e-02
         6         3       -7.118604e-01
         7         3        2.471032e-01
         8         3       -1.203327e+00
         9         3       -1.065092e+00
        10         3       -4.525855e-01
        11         3        1.498475e+00
        12         3       -8.882190e-01
        13         3        5.207772e-01
        14         3        2.152236e-01
        15         3        1.435929e+00
        16         3       -9.303256e-01
        17         3       -5.007372e-01
        18         3        1.509135e+00
        19         3        1.574524e+00
        20         3        2.409920e+00
        21         3       -3.671344e-01
        22         3        6.168659e-01
        23         3        6.297613e-01
        24         3        6.258130e-01
        25         3        2.773145e-01
        26         3        7.328038e-01
        27         3       -1.248363e+00
        28         3        2.495678e-01
        29         3        9.106713e-01
        30         3        7.653017e-01
        31         3       -8.278120e-01
        32         3       -1.275890e+00
        33         3        3.543238e-01
        34         3       -1.169881e-01
        35         3       -3.147603e-01
        36         3        1.128655e+00
        37         3        1.411125e+00
        38         3       -2.402979e+00
        39         3       -1.877129e-01
        40         3       -1.303304e+00
        41         3        5.743396e-01
        42         3       -5.616634e-01
        43         3       -5.814680e-01
        44         3       -1.014082e+00
        45         3       -1.195412e+00
        46         3        1.240479e-01
        47         3       -2.163063e-01
        48         3       -3.562565e-02
        49         3       -4.659557e-01
        50         3       -1.360630e+00
        51         3        6.596567e-01
        52         3       -3.956253e-01
        53         3       -1.700934e-01
        54         3       -1.157371e+00
        55         3       -4.988320e-01
        56         3        6.246437e-03
        57         3        1.202333e+00
         1         4        1.801708e+00
         2         4       -2.087019e-01
         3         4       -7.132102e-01
         4         4       -5.513048e-01
         5         4       -7.445121e-01
         6         4       -2.721782e-02
         7         4       -1.246102e-01
         8         4       -1.102707e+00
         9         4        7.036646e-01
        10         4        6.578954e-01
        11         4        2.767141e+00
        12         4       -9.839802e-01
        13         4        3.193910e-01
        14         4       -3.154540e-01
        15         4        9.348914e-01
        16         4        4.801145e-01
        17         4        3.629438e-01
        18         4        1.624331e+00
        19         4        6.555414e-01
        20         4       -2.037195e-02
        21         4        8.624503e-01
        22         4       -1.245919e-01
        23         4        1.570636e+00
        24         4       -8.185575e-01
        25         4       -1.322800e+00
        26         4       -6.808850e-01
        27         4       -8.150727e-02
        28         4        2.173095e-01
        29         4       -5.817197e-01
        30         4       -7.336770e-01
        31         4       -1.453040e+00
        32         4       -4.000087e-01
        33         4        1.384381e+00
        34         4       -1.468679e+00
        35         4        2.890791e-02
        36         4        1.813445e-01
        37         4       -9.664233e-01
        38         4        6.565424e-01
        39         4       -7.647786e-01
        40         4        3.632135e-01
        41         4       -4.379848e-01
        42         4        2.863426e+00
        43         4        1.591170e+00
        44         4        8.343086e-01
        45         4        1.166809e+00
        46         4        8.556291e-01
        47         4        2.048197e+00
        48         4        1.247283e+00
        49         4        6.313695e-01
        50         4        1.429275e+00
        51         4       -3.782912e-01
        52         4        1.023953e+00
        53         4        4.022232e-01
        54         4       -6.375214e-01
        55         4        6.202138e-01
        56         4       -8.543769e-01
        57         4       -5.840773e-01
         1         5       -4.190079e-01
         2         5       -8.583918e-01
         3         5       -7.299761e-02
         4         5       -9.176819e-01
         5         5       -7.496483e-01
         6         5       -1.244895e+00
         7         5       -1.207613e+00
         8         5       -9.017401e-01
         9         5        6.129428e-01
        10         5        2.160662e-01
        11         5        2.599230e-01
        12         5       -8.319253e-01
        13         5       -3.183675e-01
        14         5       -1.262362e+00
        15         5       -2.404811e-01
        16         5        1.339864e+00
        17         5       -7.238373e-01
        18         5       -9.768870e-02
        19         5       -9.594750e-01
        20         5        3.318232e-01
        21         5       -8.893019e-01
        22         5        8.977509e-02
        23         5       -2.001032e+00
        24         5        5.132327e-01
        25         5       -2.532525e+00
        26         5       -1.575774e+00
        27         5       -4.986321e-02
        28         5       -9.763846e-01
        29         5       -1.331151e-01
        30         5        1.155773e+00
        31         5        3.318599e-01
        32         5        8.185790e-01
        33         5        2.604867e-01
        34         5        2.392319e-01
        35         5       -1.510210e+00
        36         5       -6.100003e-01
        37         5       -8.438485e-01
        38         5       -2.618443e-01
        39         5       -1.094899e+00
        40         5        2.545342e-01
        41         5       -1.168868e+00
        42         5       -1.751687e-01
        43         5        7.974088e-01
        44         5       -3.655463e-01
        45         5       -6.385376e-01
        46         5        1.112056e+00
        47         5       -6.939245e-01
        48         5       -2.035983e-01
        49         5        9.792189e-01
        50         5       -1.396232e+00
        51         5        7.250365e-01
        52         5        9.368226e-01
        53         5        1.186628e+00
        54         5        6.545539e-02
        55         5        4.947354e-01
        56         5       -3.792622e-01
        57         5        4.104190e-01
;

param theta:=
    1        1.458219e+00
    2       -5.416635e-01
    3       -5.850231e-01
    4        1.624538e+00
    5       -1.659913e-01
;
param X_true:=
    1        2.272335e+00
    2        2.190587e-01
    3        8.118576e-01
    4        2.323754e-01
    5       -3.887649e-01
    6       -1.653803e-01
    7        1.053624e+00
    8       -4.477140e-01
    9        7.138891e-01
   10        1.601309e+00
   11        1.625391e+00
   12       -1.244808e-01
   13       -3.635061e-01
   14       -2.570003e-01
   15        8.530116e-01
   16        2.848994e+00
   17        7.030952e-02
   18        1.271497e+00
   19        2.188142e+00
   20       -2.603867e+00
   21        1.684091e+00
   22       -4.226648e+00
   23        1.582816e+00
   24       -4.542409e-01
   25       -1.178355e-01
   26       -1.242273e+00
   27        8.140914e-01
   28        1.901407e+00
   29       -6.465201e-01
   30       -2.135031e-01
   31        1.248149e+00
   32        1.281971e+00
   33        8.756809e-01
   34       -1.591904e+00
   35        5.373133e-01
   36       -1.116354e+00
   37       -2.297943e+00
   38       -4.195718e-02
   39        8.099128e-02
   40        3.743423e+00
   41       -3.660928e+00
   42        6.351316e+00
   43        4.067217e+00
   44        8.934461e-01
   45       -8.922574e-01
   46        1.233313e+00
   47       -2.829768e-01
   48        1.588907e+00
   49        5.566695e-01
   50        2.070637e+00
   51        2.242946e-01
   52        2.442248e+00
   53        1.559474e+00
   54       -7.405560e-01
   55        1.833163e+00
   56       -7.157432e-01
   57       -9.221203e-01
;
param X:=
    1        1.096533e+00
    2        1.285091e+00
    3        2.123646e-01
    4        3.398476e-01
    5       -4.168046e-01
    6       -1.833309e-01
    7        1.053624e+00
    8        5.789754e-01
    9       -2.474920e-01
   10       -2.237676e-02
   11        6.888693e-01
   12       -1.244808e-01
   13        1.113427e+00
   14       -2.570003e-01
   15        8.530116e-01
   16        1.029957e+00
   17       -8.537206e-02
   18        1.543925e+00
   19        2.188142e+00
   20       -2.603867e+00
   21        1.067139e+00
   22       -1.964010e+00
   23        2.090550e+00
   24        2.615066e-01
   25        1.143535e+00
   26       -1.076724e+00
   27        5.194177e-01
   28        1.901407e+00
   29       -9.412376e-01
   30       -2.135031e-01
   31        5.992421e-01
   32        1.281971e+00
   33        1.055714e+00
   34       -7.182045e-01
   35        1.366628e+00
   36        4.972721e-01
   37       -1.058788e+00
   38       -1.014272e-01
   39       -7.600496e-02
   40        3.743423e+00
   41       -1.822100e+00
   42        6.351316e+00
   43        1.515217e+00
   44       -1.117567e-01
   45       -2.547185e-01
   46        1.187587e+00
   47        9.274734e-01
   48        1.588907e+00
   49        6.734857e-02
   50        2.070637e+00
   51       -7.374094e-01
   52        2.442248e+00
   53       -1.867596e-01
   54        2.908658e-01
   55        6.991106e-01
   56        1.675578e-01
   57       -7.158950e-01
;
param outliervec:=
    1    1
    2    1
    3    1
    4    1
    5    1
    6    1
    7    0
    8    1
    9    1
   10    1
   11    1
   12    0
   13    1
   14    0
   15    0
   16    1
   17    1
   18    1
   19    0
   20    0
   21    1
   22    1
   23    1
   24    1
   25    1
   26    1
   27    1
   28    0
   29    1
   30    0
   31    1
   32    0
   33    1
   34    1
   35    1
   36    1
   37    1
   38    1
   39    1
   40    0
   41    1
   42    0
   43    1
   44    1
   45    1
   46    1
   47    1
   48    0
   49    1
   50    0
   51    1
   52    0
   53    1
   54    1
   55    1
   56    1
   57    1
; 
param greedy_time :=         4.822912e-01
;